# Solution for model MBA_ILP_FLEX
# Objective value = 4.6722467522529
x_0_0_1_1 1
x_0_1_0_1 0
x_0_1_2_1 1
x_0_1_3_2 0
x_0_1_4_2 0
x_0_2_1_1 0
x_0_3_1_2 0
x_0_4_1_2 0
x_1_0_1_1 1
x_1_1_0_1 0
x_1_1_2_1 0
x_1_1_3_2 1
x_1_1_4_2 0
x_1_2_1_1 0
x_1_3_1_2 0
x_1_4_1_2 0
x_2_0_1_1 0
x_2_1_0_1 1
x_2_1_2_1 0
x_2_1_3_2 0
x_2_1_4_2 0
x_2_2_1_1 1
x_2_3_1_2 0
x_2_4_1_2 0
x_3_0_1_1 0
x_3_1_0_1 0
x_3_1_2_1 1
x_3_1_3_2 0
x_3_1_4_2 0
x_3_2_1_1 0
x_3_3_1_2 0
x_3_4_1_2 1
x_4_0_1_1 0
x_4_1_0_1 0
x_4_1_2_1 0
x_4_1_3_2 0
x_4_1_4_2 1
x_4_2_1_1 0
x_4_3_1_2 0
x_4_4_1_2 0
x_5_0_1_1 0
x_5_1_0_1 0
x_5_1_2_1 0
x_5_1_3_2 0
x_5_1_4_2 1
x_5_2_1_1 1
x_5_3_1_2 0
x_5_4_1_2 0
x_6_0_1_1 1
x_6_1_0_1 0
x_6_1_2_1 0
x_6_1_3_2 0
x_6_1_4_2 1
x_6_2_1_1 0
x_6_3_1_2 0
x_6_4_1_2 0
x_7_0_1_1 0
x_7_1_0_1 0
x_7_1_2_1 0
x_7_1_3_2 1
x_7_1_4_2 0
x_7_2_1_1 1
x_7_3_1_2 0
x_7_4_1_2 0
x_8_0_1_1 1
x_8_1_0_1 0
x_8_1_2_1 0
x_8_1_3_2 0
x_8_1_4_2 0
x_8_2_1_1 0
x_8_3_1_2 0
x_8_4_1_2 0
x_9_0_1_1 0
x_9_1_0_1 1
x_9_1_2_1 0
x_9_1_3_2 0
x_9_1_4_2 0
x_9_2_1_1 0
x_9_3_1_2 0
x_9_4_1_2 0
x_10_0_1_1 0
x_10_1_0_1 0
x_10_1_2_1 0
x_10_1_3_2 1
x_10_1_4_2 0
x_10_2_1_1 0
x_10_3_1_2 0
x_10_4_1_2 1
x_11_0_1_1 0
x_11_1_0_1 0
x_11_1_2_1 1
x_11_1_3_2 0
x_11_1_4_2 0
x_11_2_1_1 0
x_11_3_1_2 0
x_11_4_1_2 0
x_12_0_1_1 0
x_12_1_0_1 0
x_12_1_2_1 1
x_12_1_3_2 0
x_12_1_4_2 0
x_12_2_1_1 0
x_12_3_1_2 1
x_12_4_1_2 0
x_13_0_1_1 0
x_13_1_0_1 1
x_13_1_2_1 0
x_13_1_3_2 0
x_13_1_4_2 0
x_13_2_1_1 0
x_13_3_1_2 0
x_13_4_1_2 1
x_14_0_1_1 0
x_14_1_0_1 0
x_14_1_2_1 0
x_14_1_3_2 0
x_14_1_4_2 0
x_14_2_1_1 1
x_14_3_1_2 0
x_14_4_1_2 0
x_15_0_1_1 0
x_15_1_0_1 1
x_15_1_2_1 0
x_15_1_3_2 0
x_15_1_4_2 0
x_15_2_1_1 0
x_15_3_1_2 1
x_15_4_1_2 0
x_16_0_1_1 0
x_16_1_0_1 0
x_16_1_2_1 0
x_16_1_3_2 1
x_16_1_4_2 0
x_16_2_1_1 0
x_16_3_1_2 0
x_16_4_1_2 0
x_17_0_1_1 0
x_17_1_0_1 0
x_17_1_2_1 0
x_17_1_3_2 0
x_17_1_4_2 1
x_17_2_1_1 0
x_17_3_1_2 1
x_17_4_1_2 0
x_18_0_1_1 0
x_18_1_0_1 0
x_18_1_2_1 0
x_18_1_3_2 0
x_18_1_4_2 0
x_18_2_1_1 0
x_18_3_1_2 0
x_18_4_1_2 1
x_19_0_1_1 0
x_19_1_0_1 0
x_19_1_2_1 0
x_19_1_3_2 0
x_19_1_4_2 0
x_19_2_1_1 0
x_19_3_1_2 1
x_19_4_1_2 0
w_1_0 8
w_1_1 3
w_1_2 5
w_1_3 4
w_2_0 3
w_2_1 8
w_2_2 4
w_2_3 3
z_0_1 0
z_1_1 0
z_2_1 0
z_3_1 0
z_4_1 0
z_5_1 0
z_6_1 0
z_7_1 0
z_8_1 0
z_9_1 0
z_10_1 0
z_11_1 0
z_12_1 0
z_13_1 0
z_14_1 0
z_15_1 0
z_16_1 0
z_17_1 0
z_18_1 0
z_19_1 0
v_0_1 0
v_0_2 0
v_0_3 0
v_0_4 0
v_1_0 0
v_1_2 0
v_1_3 0
v_1_4 0
v_2_0 0
v_2_1 0
v_2_3 1
v_2_4 0
v_3_0 0
v_3_1 0
v_3_2 0
v_3_4 0
v_4_0 5
v_4_1 0
v_4_2 0
v_4_3 0
